sat
(:max-memory          18.53
 :memory              18.43
 :nlsat-arith-var     2
 :nlsat-atoms         13
 :nlsat-bool-var      2
 :nlsat-clauses       9
 :nlsat-conflicts     1
 :nlsat-propagations  17
 :nlsat-stages        4
 :num-allocs          58640
 :rlimit-count        3766
 :solve-eqs-elim-vars 1
 :solve-eqs-steps     1
 :time                0.00
 :total-time          0.01)
